&FORCE_EVAL
  &SUBSYS
    # Define the cell geometry
    &CELL
      ABC 16.0 16.0 16.0
      PERIODIC NONE
    &END CELL
  &END SUBSYS
&END FORCE_EVAL
