&GLOBAL
  PRINT_LEVEL LOW
  PROJECT_NAME Si_bulk8
  RUN_TYPE ENERGY_FORCE
&END GLOBAL
