&GLOBAL
  PROJECT_NAME H2O
  RUN_TYPE GEO_OPT
  PRINT_LEVEL LOW
&END GLOBAL
&MOTION
  &GEO_OPT
    TYPE MINIMIZATION
    MAX_DR  [bohr]  1.0E-03
    MAX_FORCE 1.0E-03 [bohr^-1*hartree]
    RMS_DR    1.0E-03
  &END GEO_OPT
&END MOTION
